min: +64 c6 +32 c5 +16 c4 +8 c3 +4 c2 +2 c1 +1 c0;
+1 x11 = 1;
+1 x21 = 1;
+1 x32 = 1;
+1 x43 = 1;
+1 x54 = 1;
+1 x61 +1 x62 = 1;
+1 x72 +1 x73 = 1;
+1 x81 +1 x82 +1 x83 = 1;
+1 x92 +1 x93 +1 x94 = 1;
+1 x101 +1 x102 +1 x103 = 1;
+1 x112 +1 x113 +1 x114 = 1;
+1 x61 +2 x62 -2 x72 -3 x73 < 0;
+1 x81 +2 x82 +3 x83 -2 x92 -3 x93 -4 x94 < 0;
+1 x101 +2 x102 +3 x103 -2 x112 -3 x113 -4 x114 < 0;
+1 y111 +1 y112 +1 y113 +1 y114 = 1;
+1 y211 +1 y212 +1 y213 +1 y214 = 1;
+1 y311 +1 y312 +1 y313 +1 y314 = 1;
+1 y421 +1 y422 +1 y423 +1 y424 = 1;
+1 y521 +1 y522 +1 y523 +1 y524 = 1;
+1 y611 +1 y612 +1 y613 +1 y614 = 1;
+1 y711 +1 y712 +1 y713 +1 y714 = 1;
+1 y811 +1 y812 +1 y813 +1 y814 = 1;
+1 y921 +1 y922 +1 y923 +1 y924 = 1;
+1 y1021 +1 y1022 +1 y1023 +1 y1024 = 1;
+1 y1121 +1 y1122 +1 y1123 +1 y1124 = 1;
+1 y111 +1 y211 +1 x11 +1 x21 <= 3;
+1 y112 +1 y212 +1 x11 +1 x21 <= 3;
+1 y113 +1 y213 +1 x11 +1 x21 <= 3;
+1 y114 +1 y214 +1 x11 +1 x21 <= 3;
+1 y111 +1 y611 +1 x11 +1 x61 <= 3;
+1 y112 +1 y612 +1 x11 +1 x61 <= 3;
+1 y113 +1 y613 +1 x11 +1 x61 <= 3;
+1 y114 +1 y614 +1 x11 +1 x61 <= 3;
+1 y111 +1 y811 +1 x11 +1 x81 <= 3;
+1 y112 +1 y812 +1 x11 +1 x81 <= 3;
+1 y113 +1 y813 +1 x11 +1 x81 <= 3;
+1 y114 +1 y814 +1 x11 +1 x81 <= 3;
+1 y211 +1 y611 +1 x21 +1 x61 <= 3;
+1 y212 +1 y612 +1 x21 +1 x61 <= 3;
+1 y213 +1 y613 +1 x21 +1 x61 <= 3;
+1 y214 +1 y614 +1 x21 +1 x61 <= 3;
+1 y211 +1 y811 +1 x21 +1 x81 <= 3;
+1 y212 +1 y812 +1 x21 +1 x81 <= 3;
+1 y213 +1 y813 +1 x21 +1 x81 <= 3;
+1 y214 +1 y814 +1 x21 +1 x81 <= 3;
+1 y611 +1 y811 +1 x61 +1 x81 <= 3;
+1 y612 +1 y812 +1 x61 +1 x81 <= 3;
+1 y613 +1 y813 +1 x61 +1 x81 <= 3;
+1 y614 +1 y814 +1 x61 +1 x81 <= 3;
+1 y311 +1 y611 +1 x32 +1 x62 <= 3;
+1 y312 +1 y612 +1 x32 +1 x62 <= 3;
+1 y313 +1 y613 +1 x32 +1 x62 <= 3;
+1 y314 +1 y614 +1 x32 +1 x62 <= 3;
+1 y311 +1 y711 +1 x32 +1 x72 <= 3;
+1 y312 +1 y712 +1 x32 +1 x72 <= 3;
+1 y313 +1 y713 +1 x32 +1 x72 <= 3;
+1 y314 +1 y714 +1 x32 +1 x72 <= 3;
+1 y311 +1 y811 +1 x32 +1 x82 <= 3;
+1 y312 +1 y812 +1 x32 +1 x82 <= 3;
+1 y313 +1 y813 +1 x32 +1 x82 <= 3;
+1 y314 +1 y814 +1 x32 +1 x82 <= 3;
+1 y611 +1 y711 +1 x62 +1 x72 <= 3;
+1 y612 +1 y712 +1 x62 +1 x72 <= 3;
+1 y613 +1 y713 +1 x62 +1 x72 <= 3;
+1 y614 +1 y714 +1 x62 +1 x72 <= 3;
+1 y611 +1 y811 +1 x62 +1 x82 <= 3;
+1 y612 +1 y812 +1 x62 +1 x82 <= 3;
+1 y613 +1 y813 +1 x62 +1 x82 <= 3;
+1 y614 +1 y814 +1 x62 +1 x82 <= 3;
+1 y711 +1 y811 +1 x72 +1 x82 <= 3;
+1 y712 +1 y812 +1 x72 +1 x82 <= 3;
+1 y713 +1 y813 +1 x72 +1 x82 <= 3;
+1 y714 +1 y814 +1 x72 +1 x82 <= 3;
+1 y711 +1 y811 +1 x73 +1 x83 <= 3;
+1 y712 +1 y812 +1 x73 +1 x83 <= 3;
+1 y713 +1 y813 +1 x73 +1 x83 <= 3;
+1 y714 +1 y814 +1 x73 +1 x83 <= 3;
+1 y921 +1 y1021 +1 x92 +1 x102 <= 3;
+1 y922 +1 y1022 +1 x92 +1 x102 <= 3;
+1 y923 +1 y1023 +1 x92 +1 x102 <= 3;
+1 y924 +1 y1024 +1 x92 +1 x102 <= 3;
+1 y921 +1 y1121 +1 x92 +1 x112 <= 3;
+1 y922 +1 y1122 +1 x92 +1 x112 <= 3;
+1 y923 +1 y1123 +1 x92 +1 x112 <= 3;
+1 y924 +1 y1124 +1 x92 +1 x112 <= 3;
+1 y1021 +1 y1121 +1 x102 +1 x112 <= 3;
+1 y1022 +1 y1122 +1 x102 +1 x112 <= 3;
+1 y1023 +1 y1123 +1 x102 +1 x112 <= 3;
+1 y1024 +1 y1124 +1 x102 +1 x112 <= 3;
+1 y421 +1 y921 +1 x43 +1 x93 <= 3;
+1 y422 +1 y922 +1 x43 +1 x93 <= 3;
+1 y423 +1 y923 +1 x43 +1 x93 <= 3;
+1 y424 +1 y924 +1 x43 +1 x93 <= 3;
+1 y421 +1 y1021 +1 x43 +1 x103 <= 3;
+1 y422 +1 y1022 +1 x43 +1 x103 <= 3;
+1 y423 +1 y1023 +1 x43 +1 x103 <= 3;
+1 y424 +1 y1024 +1 x43 +1 x103 <= 3;
+1 y421 +1 y1121 +1 x43 +1 x113 <= 3;
+1 y422 +1 y1122 +1 x43 +1 x113 <= 3;
+1 y423 +1 y1123 +1 x43 +1 x113 <= 3;
+1 y424 +1 y1124 +1 x43 +1 x113 <= 3;
+1 y921 +1 y1021 +1 x93 +1 x103 <= 3;
+1 y922 +1 y1022 +1 x93 +1 x103 <= 3;
+1 y923 +1 y1023 +1 x93 +1 x103 <= 3;
+1 y924 +1 y1024 +1 x93 +1 x103 <= 3;
+1 y921 +1 y1121 +1 x93 +1 x113 <= 3;
+1 y922 +1 y1122 +1 x93 +1 x113 <= 3;
+1 y923 +1 y1123 +1 x93 +1 x113 <= 3;
+1 y924 +1 y1124 +1 x93 +1 x113 <= 3;
+1 y1021 +1 y1121 +1 x103 +1 x113 <= 3;
+1 y1022 +1 y1122 +1 x103 +1 x113 <= 3;
+1 y1023 +1 y1123 +1 x103 +1 x113 <= 3;
+1 y1024 +1 y1124 +1 x103 +1 x113 <= 3;
+1 y521 +1 y921 +1 x54 +1 x94 <= 3;
+1 y522 +1 y922 +1 x54 +1 x94 <= 3;
+1 y523 +1 y923 +1 x54 +1 x94 <= 3;
+1 y524 +1 y924 +1 x54 +1 x94 <= 3;
+1 y521 +1 y1121 +1 x54 +1 x114 <= 3;
+1 y522 +1 y1122 +1 x54 +1 x114 <= 3;
+1 y523 +1 y1123 +1 x54 +1 x114 <= 3;
+1 y524 +1 y1124 +1 x54 +1 x114 <= 3;
+1 y921 +1 y1121 +1 x94 +1 x114 <= 3;
+1 y922 +1 y1122 +1 x94 +1 x114 <= 3;
+1 y923 +1 y1123 +1 x94 +1 x114 <= 3;
+1 y924 +1 y1124 +1 x94 +1 x114 <= 3;
+1 x11 +1 y111 -1 z111 <= 1;
+1 x11 +1 y112 -1 z121 <= 1;
+1 x11 +1 y113 -1 z131 <= 1;
+1 x11 +1 y114 -1 z141 <= 1;
+1 x21 +1 y211 -1 z111 <= 1;
+1 x21 +1 y212 -1 z121 <= 1;
+1 x21 +1 y213 -1 z131 <= 1;
+1 x21 +1 y214 -1 z141 <= 1;
+1 x61 +1 y611 -1 z111 <= 1;
+1 x61 +1 y612 -1 z121 <= 1;
+1 x61 +1 y613 -1 z131 <= 1;
+1 x61 +1 y614 -1 z141 <= 1;
+1 x81 +1 y811 -1 z111 <= 1;
+1 x81 +1 y812 -1 z121 <= 1;
+1 x81 +1 y813 -1 z131 <= 1;
+1 x81 +1 y814 -1 z141 <= 1;
+1 x32 +1 y311 -1 z112 <= 1;
+1 x32 +1 y312 -1 z122 <= 1;
+1 x32 +1 y313 -1 z132 <= 1;
+1 x32 +1 y314 -1 z142 <= 1;
+1 x62 +1 y611 -1 z112 <= 1;
+1 x62 +1 y612 -1 z122 <= 1;
+1 x62 +1 y613 -1 z132 <= 1;
+1 x62 +1 y614 -1 z142 <= 1;
+1 x72 +1 y711 -1 z112 <= 1;
+1 x72 +1 y712 -1 z122 <= 1;
+1 x72 +1 y713 -1 z132 <= 1;
+1 x72 +1 y714 -1 z142 <= 1;
+1 x82 +1 y811 -1 z112 <= 1;
+1 x82 +1 y812 -1 z122 <= 1;
+1 x82 +1 y813 -1 z132 <= 1;
+1 x82 +1 y814 -1 z142 <= 1;
+1 x73 +1 y711 -1 z113 <= 1;
+1 x73 +1 y712 -1 z123 <= 1;
+1 x73 +1 y713 -1 z133 <= 1;
+1 x73 +1 y714 -1 z143 <= 1;
+1 x83 +1 y811 -1 z113 <= 1;
+1 x83 +1 y812 -1 z123 <= 1;
+1 x83 +1 y813 -1 z133 <= 1;
+1 x83 +1 y814 -1 z143 <= 1;
+1 x101 +1 y1021 -1 z211 <= 1;
+1 x101 +1 y1022 -1 z221 <= 1;
+1 x101 +1 y1023 -1 z231 <= 1;
+1 x101 +1 y1024 -1 z241 <= 1;
+1 x92 +1 y921 -1 z212 <= 1;
+1 x92 +1 y922 -1 z222 <= 1;
+1 x92 +1 y923 -1 z232 <= 1;
+1 x92 +1 y924 -1 z242 <= 1;
+1 x102 +1 y1021 -1 z212 <= 1;
+1 x102 +1 y1022 -1 z222 <= 1;
+1 x102 +1 y1023 -1 z232 <= 1;
+1 x102 +1 y1024 -1 z242 <= 1;
+1 x112 +1 y1121 -1 z212 <= 1;
+1 x112 +1 y1122 -1 z222 <= 1;
+1 x112 +1 y1123 -1 z232 <= 1;
+1 x112 +1 y1124 -1 z242 <= 1;
+1 x43 +1 y421 -1 z213 <= 1;
+1 x43 +1 y422 -1 z223 <= 1;
+1 x43 +1 y423 -1 z233 <= 1;
+1 x43 +1 y424 -1 z243 <= 1;
+1 x93 +1 y921 -1 z213 <= 1;
+1 x93 +1 y922 -1 z223 <= 1;
+1 x93 +1 y923 -1 z233 <= 1;
+1 x93 +1 y924 -1 z243 <= 1;
+1 x103 +1 y1021 -1 z213 <= 1;
+1 x103 +1 y1022 -1 z223 <= 1;
+1 x103 +1 y1023 -1 z233 <= 1;
+1 x103 +1 y1024 -1 z243 <= 1;
+1 x113 +1 y1121 -1 z213 <= 1;
+1 x113 +1 y1122 -1 z223 <= 1;
+1 x113 +1 y1123 -1 z233 <= 1;
+1 x113 +1 y1124 -1 z243 <= 1;
+1 x54 +1 y521 -1 z214 <= 1;
+1 x54 +1 y522 -1 z224 <= 1;
+1 x54 +1 y523 -1 z234 <= 1;
+1 x54 +1 y524 -1 z244 <= 1;
+1 x94 +1 y921 -1 z214 <= 1;
+1 x94 +1 y922 -1 z224 <= 1;
+1 x94 +1 y923 -1 z234 <= 1;
+1 x94 +1 y924 -1 z244 <= 1;
+1 x114 +1 y1121 -1 z214 <= 1;
+1 x114 +1 y1122 -1 z224 <= 1;
+1 x114 +1 y1123 -1 z234 <= 1;
+1 x114 +1 y1124 -1 z244 <= 1;
+1 z110 = 0;
+1 z120 = 0;
+1 z130 = 0;
+1 z140 = 0;
+1 z210 = 0;
+1 z220 = 0;
+1 z230 = 0;
+1 z240 = 0;
+1 z111 -1 z110 -1 s111 <= 0;
+1 z121 -1 z120 -1 s121 <= 0;
+1 z131 -1 z130 -1 s131 <= 0;
+1 z141 -1 z140 -1 s141 <= 0;
+1 z112 -1 z111 -1 s112 <= 0;
+1 z122 -1 z121 -1 s122 <= 0;
+1 z132 -1 z131 -1 s132 <= 0;
+1 z142 -1 z141 -1 s142 <= 0;
+1 z113 -1 z112 -1 s113 <= 0;
+1 z123 -1 z122 -1 s123 <= 0;
+1 z133 -1 z132 -1 s133 <= 0;
+1 z143 -1 z142 -1 s143 <= 0;
+1 z114 -1 z113 -1 s114 <= 0;
+1 z124 -1 z123 -1 s124 <= 0;
+1 z134 -1 z133 -1 s134 <= 0;
+1 z144 -1 z143 -1 s144 <= 0;
+1 z211 -1 z210 -1 s211 <= 0;
+1 z221 -1 z220 -1 s221 <= 0;
+1 z231 -1 z230 -1 s231 <= 0;
+1 z241 -1 z240 -1 s241 <= 0;
+1 z212 -1 z211 -1 s212 <= 0;
+1 z222 -1 z221 -1 s222 <= 0;
+1 z232 -1 z231 -1 s232 <= 0;
+1 z242 -1 z241 -1 s242 <= 0;
+1 z213 -1 z212 -1 s213 <= 0;
+1 z223 -1 z222 -1 s223 <= 0;
+1 z233 -1 z232 -1 s233 <= 0;
+1 z243 -1 z242 -1 s243 <= 0;
+1 z214 -1 z213 -1 s214 <= 0;
+1 z224 -1 z223 -1 s224 <= 0;
+1 z234 -1 z233 -1 s234 <= 0;
+1 z244 -1 z243 -1 s244 <= 0;
+1 z111 +1 z121 +1 z131 +1 z141 +1 z211 +1 z221 +1 z231 +1 z241 +1 z112 +1 z122 +1 z132 +1 z142 +1 z212 +1 z222 +1 z232 +1 z242 +1 z113 +1 z123 +1 z133 +1 z143 +1 z213 +1 z223 +1 z233 +1 z243 +1 z114 +1 z124 +1 z134 +1 z144 +1 z214 +1 z224 +1 z234 +1 z244  = 11;
+56 s111 +56 s121 +56 s131 +56 s141 +49 s211 +49 s221 +49 s231 +49 s241  -64 c6 -32 c5 -16 c4 -8 c3 -4 c2 -2 c1 -1 c0 <= 0;
+56 s112 +56 s122 +56 s132 +56 s142 +49 s212 +49 s222 +49 s232 +49 s242  -64 c6 -32 c5 -16 c4 -8 c3 -4 c2 -2 c1 -1 c0 <= 0;
+56 s113 +56 s123 +56 s133 +56 s143 +49 s213 +49 s223 +49 s233 +49 s243  -64 c6 -32 c5 -16 c4 -8 c3 -4 c2 -2 c1 -1 c0 <= 0;
+56 s114 +56 s124 +56 s134 +56 s144 +49 s214 +49 s224 +49 s234 +49 s244  -64 c6 -32 c5 -16 c4 -8 c3 -4 c2 -2 c1 -1 c0 <= 0;
